NAME : grid
TYPE : TSP
DIMENSION : 50
EDGE_WEIGHT_TYPE : EUC_2D
NODE_COORD_SECTION
1 254228 635912
2 227662 860158
3 217764 918633
4 95204 724466
5 916130 309934
6 879557 639876
7 427918 802390
8 613450 865070
9 450022 107041
10 976482 14826
11 957324 922912
12 884757 543873
13 487786 699840
14 252797 570161
15 94910 517560
16 126642 164971
17 254631 257688
18 699243 123627
19 66258 28497
20 896223 308488
21 317385 367180
22 340628 253214
23 283986 478819
24 175988 428261
25 989567 693274
26 296543 534990
27 987193 123627
28 418996 948497
29 699243 276951
30 987193 276951
31 722536 344630
32 227748 196426
33 943149 731589
34 245735 507822
35 828374 520904
36 125234 519048
37 708507 86649
38 558544 50934
39 543480 862335
40 468051 342818
41 980538 657865
42 983531 649485
43 120756 345877
44 572048 158962
45 25406 531722
46 417413 311557
47 29038 119743
48 212330 919877
49 376647 810268
50 541633 649681
EOF
